============================[ Problem Statistics ]=============================|                                                                             ||  Number of variables:          4242                                         ||  Number of clauses:           10209                                         ||  Parse time:                   0.61 s                                       ||                                                                             |============================[ Search Statistics ]==============================| Conflicts |          ORIGINAL         |          LEARNT          | Progress ||           |    Vars  Clauses Literals |    Limit  Clauses Lit/Cl |          |===============================================================================|       100 |    1591     6414   952075 |     2351      100     53 | 62.501 % ||       250 |    1591     6414   952075 |     2586      250     75 | 62.495 % |===============================================================================restarts              : 3conflicts             : 329            (361 /sec)decisions             : 592            (0.00 % random) (649 /sec)propagations          : 11908          (13057 /sec)conflict literals     : 26425          (94.67 % deleted)CPU time              : 0.912 sSATISFIABLE